p cnf 430 1488
-191 -46 0
-191 41 0
-191 -119 0
-191 96 0
-191 36 0
191 46 -41 119 -96 -36 0
-192 -19 0
-192 -155 0
-192 189 0
-192 95 0
-192 -148 0
192 19 155 -189 -95 148 0
-193 143 0
-193 -63 0
-193 -4 0
-193 -45 0
-193 -104 0
193 -143 63 4 45 104 0
-194 -147 0
-194 -91 0
-194 -32 0
-194 38 0
-194 18 0
194 147 91 32 -38 -18 0
-195 92 0
-195 62 0
-195 -132 0
-195 -69 0
-195 -55 0
195 -92 -62 132 69 55 0
191 192 193 194 195 0
-196 -182 0
-196 -189 0
-196 77 0
-196 156 0
-196 70 0
196 182 189 -77 -156 -70 0
-197 23 0
-197 -84 0
-197 27 0
-197 -11 0
-197 142 0
197 -23 84 -27 11 -142 0
-198 -88 0
-198 -70 0
-198 46 0
-198 -164 0
-198 -7 0
198 88 70 -46 164 7 0
-199 -35 0
-199 115 0
-199 -118 0
-199 -27 0
-199 -94 0
199 35 -115 118 27 94 0
-200 53 0
-200 -124 0
-200 41 0
-200 -99 0
-200 -141 0
200 -53 124 -41 99 141 0
196 197 198 199 200 0
-201 -72 0
-201 -17 0
-201 27 0
-201 -160 0
-201 -119 0
201 72 17 -27 160 119 0
-202 -40 0
-202 -29 0
-202 63 0
-202 115 0
-202 -187 0
202 40 29 -63 -115 187 0
-203 -100 0
-203 -128 0
-203 -16 0
-203 -8 0
-203 9 0
203 100 128 16 8 -9 0
-204 138 0
-204 6 0
-204 -168 0
-204 -111 0
-204 128 0
204 -138 -6 168 111 -128 0
-205 -90 0
-205 -103 0
-205 -185 0
-205 -8 0
-205 -97 0
205 90 103 185 8 97 0
201 202 203 204 205 0
-206 -126 0
-206 -159 0
-206 99 0
-206 109 0
-206 -120 0
206 126 159 -99 -109 120 0
-207 -72 0
-207 -70 0
-207 120 0
-207 -184 0
-207 -87 0
207 72 70 -120 184 87 0
-208 79 0
-208 -181 0
-208 -113 0
-208 -21 0
-208 -176 0
208 -79 181 113 21 176 0
-209 120 0
-209 -44 0
-209 109 0
-209 -103 0
-209 21 0
209 -120 44 -109 103 -21 0
-210 -34 0
-210 160 0
-210 -45 0
-210 15 0
-210 -71 0
210 34 -160 45 -15 71 0
206 207 208 209 210 0
-211 143 0
-211 -110 0
-211 185 0
-211 86 0
-211 29 0
211 -143 110 -185 -86 -29 0
-212 167 0
-212 -171 0
-212 117 0
-212 -141 0
-212 45 0
212 -167 171 -117 141 -45 0
-213 -159 0
-213 -29 0
-213 -169 0
-213 -83 0
-213 144 0
213 159 29 169 83 -144 0
-214 158 0
-214 130 0
-214 -131 0
-214 115 0
-214 -78 0
214 -158 -130 131 -115 78 0
-215 77 0
-215 -185 0
-215 3 0
-215 180 0
-215 -32 0
215 -77 185 -3 -180 32 0
211 212 213 214 215 0
-216 119 0
-216 -179 0
-216 -135 0
-216 -81 0
-216 -19 0
216 -119 179 135 81 19 0
-217 -155 0
-217 177 0
-217 -158 0
-217 49 0
-217 41 0
217 155 -177 158 -49 -41 0
-218 139 0
-218 -78 0
-218 86 0
-218 -56 0
-218 -84 0
218 -139 78 -86 56 84 0
-219 54 0
-219 77 0
-219 -147 0
-219 -181 0
-219 -62 0
219 -54 -77 147 181 62 0
-220 -56 0
-220 52 0
-220 -32 0
-220 -79 0
-220 114 0
220 56 -52 32 79 -114 0
216 217 218 219 220 0
-221 174 0
-221 -100 0
-221 69 0
-221 -160 0
-221 -133 0
221 -174 100 -69 160 133 0
-222 -35 0
-222 -89 0
-222 -121 0
-222 -122 0
-222 95 0
222 35 89 121 122 -95 0
-223 23 0
-223 -131 0
-223 72 0
-223 83 0
-223 31 0
223 -23 131 -72 -83 -31 0
-224 117 0
-224 11 0
-224 189 0
-224 140 0
-224 -58 0
224 -117 -11 -189 -140 58 0
-225 -45 0
-225 -91 0
-225 -159 0
-225 20 0
-225 -151 0
225 45 91 159 -20 151 0
221 222 223 224 225 0
-226 167 0
-226 -123 0
-226 -85 0
-226 -14 0
-226 102 0
226 -167 123 85 14 -102 0
-227 -82 0
-227 126 0
-227 -129 0
-227 26 0
-227 -51 0
227 82 -126 129 -26 51 0
-228 17 0
-228 53 0
-228 9 0
-228 30 0
-228 -25 0
228 -17 -53 -9 -30 25 0
-229 54 0
-229 110 0
-229 10 0
-229 68 0
-229 139 0
229 -54 -110 -10 -68 -139 0
-230 102 0
-230 32 0
-230 56 0
-230 21 0
-230 144 0
230 -102 -32 -56 -21 -144 0
226 227 228 229 230 0
-231 -106 0
-231 -107 0
-231 170 0
-231 -177 0
-231 168 0
231 106 107 -170 177 -168 0
-232 -56 0
-232 24 0
-232 -112 0
-232 -184 0
-232 156 0
232 56 -24 112 184 -156 0
-233 31 0
-233 -20 0
-233 45 0
-233 76 0
-233 142 0
233 -31 20 -45 -76 -142 0
-234 -161 0
-234 17 0
-234 167 0
-234 -63 0
-234 -119 0
234 161 -17 -167 63 119 0
-235 -104 0
-235 74 0
-235 -53 0
-235 -31 0
-235 139 0
235 104 -74 53 31 -139 0
231 232 233 234 235 0
-236 -102 0
-236 -169 0
-236 100 0
-236 80 0
-236 -154 0
236 102 169 -100 -80 154 0
-237 95 0
-237 180 0
-237 72 0
-237 -150 0
-237 -9 0
237 -95 -180 -72 150 9 0
-238 178 0
-238 -16 0
-238 -132 0
-238 -64 0
-238 -154 0
238 -178 16 132 64 154 0
-239 -85 0
-239 -175 0
-239 -109 0
-239 20 0
-239 73 0
239 85 175 109 -20 -73 0
-240 -157 0
-240 -71 0
-240 43 0
-240 -177 0
-240 8 0
240 157 71 -43 177 -8 0
236 237 238 239 240 0
-241 -57 0
-241 -172 0
-241 166 0
-241 -64 0
-241 -65 0
241 57 172 -166 64 65 0
-242 -90 0
-242 111 0
-242 -187 0
-242 92 0
-242 -181 0
242 90 -111 187 -92 181 0
-243 -124 0
-243 182 0
-243 -107 0
-243 104 0
-243 118 0
243 124 -182 107 -104 -118 0
-244 41 0
-244 172 0
-244 -137 0
-244 -93 0
-244 115 0
244 -41 -172 137 93 -115 0
-245 115 0
-245 90 0
-245 152 0
-245 -175 0
-245 -178 0
245 -115 -90 -152 175 178 0
241 242 243 244 245 0
-246 -61 0
-246 -64 0
-246 34 0
-246 39 0
-246 176 0
246 61 64 -34 -39 -176 0
-247 -103 0
-247 -71 0
-247 -6 0
-247 61 0
-247 87 0
247 103 71 6 -61 -87 0
-248 135 0
-248 65 0
-248 -188 0
-248 166 0
-248 68 0
248 -135 -65 188 -166 -68 0
-249 -93 0
-249 -56 0
-249 69 0
-249 147 0
-249 62 0
249 93 56 -69 -147 -62 0
-250 34 0
-250 154 0
-250 113 0
-250 -94 0
-250 -18 0
250 -34 -154 -113 94 18 0
246 247 248 249 250 0
-251 -147 0
-251 180 0
-251 -110 0
-251 -100 0
-251 -24 0
251 147 -180 110 100 24 0
-252 174 0
-252 -144 0
-252 62 0
-252 74 0
-252 -69 0
252 -174 144 -62 -74 69 0
-253 29 0
-253 -49 0
-253 -184 0
-253 -137 0
-253 50 0
253 -29 49 184 137 -50 0
-254 -185 0
-254 -148 0
-254 -162 0
-254 -114 0
-254 -94 0
254 185 148 162 114 94 0
-255 149 0
-255 -14 0
-255 -107 0
-255 189 0
-255 53 0
255 -149 14 107 -189 -53 0
251 252 253 254 255 0
-256 183 0
-256 132 0
-256 14 0
-256 -71 0
-256 62 0
256 -183 -132 -14 71 -62 0
-257 148 0
-257 91 0
-257 109 0
-257 -96 0
-257 -6 0
257 -148 -91 -109 96 6 0
-258 136 0
-258 -87 0
-258 20 0
-258 -14 0
-258 -132 0
258 -136 87 -20 14 132 0
-259 -129 0
-259 147 0
-259 -24 0
-259 -131 0
-259 -42 0
259 129 -147 24 131 42 0
-260 -121 0
-260 54 0
-260 -10 0
-260 -101 0
-260 159 0
260 121 -54 10 101 -159 0
256 257 258 259 260 0
-261 -12 0
-261 176 0
-261 148 0
-261 41 0
-261 7 0
261 12 -176 -148 -41 -7 0
-262 109 0
-262 -50 0
-262 -139 0
-262 -27 0
-262 23 0
262 -109 50 139 27 -23 0
-263 38 0
-263 -124 0
-263 93 0
-263 23 0
-263 -53 0
263 -38 124 -93 -23 53 0
-264 -137 0
-264 -54 0
-264 125 0
-264 -75 0
-264 -151 0
264 137 54 -125 75 151 0
-265 -116 0
-265 119 0
-265 24 0
-265 148 0
-265 -166 0
265 116 -119 -24 -148 166 0
261 262 263 264 265 0
-266 145 0
-266 148 0
-266 109 0
-266 -156 0
-266 92 0
266 -145 -148 -109 156 -92 0
-267 -57 0
-267 112 0
-267 -140 0
-267 -138 0
-267 -28 0
267 57 -112 140 138 28 0
-268 -126 0
-268 115 0
-268 -182 0
-268 40 0
-268 101 0
268 126 -115 182 -40 -101 0
-269 -158 0
-269 -162 0
-269 -103 0
-269 -37 0
-269 -178 0
269 158 162 103 37 178 0
-270 -115 0
-270 186 0
-270 150 0
-270 -184 0
-270 33 0
270 115 -186 -150 184 -33 0
266 267 268 269 270 0
-271 -59 0
-271 87 0
-271 -104 0
-271 -55 0
-271 -137 0
271 59 -87 104 55 137 0
-272 -104 0
-272 37 0
-272 -153 0
-272 -28 0
-272 158 0
272 104 -37 153 28 -158 0
-273 -66 0
-273 -101 0
-273 152 0
-273 -188 0
-273 160 0
273 66 101 -152 188 -160 0
-274 132 0
-274 -163 0
-274 -117 0
-274 -115 0
-274 7 0
274 -132 163 117 115 -7 0
-275 52 0
-275 -103 0
-275 67 0
-275 131 0
-275 168 0
275 -52 103 -67 -131 -168 0
271 272 273 274 275 0
-276 -160 0
-276 -17 0
-276 26 0
-276 80 0
-276 -130 0
276 160 17 -26 -80 130 0
-277 -185 0
-277 37 0
-277 69 0
-277 -154 0
-277 -118 0
277 185 -37 -69 154 118 0
-278 -139 0
-278 -82 0
-278 -188 0
-278 11 0
-278 128 0
278 139 82 188 -11 -128 0
-279 -188 0
-279 190 0
-279 96 0
-279 -79 0
-279 -139 0
279 188 -190 -96 79 139 0
-280 118 0
-280 43 0
-280 180 0
-280 171 0
-280 47 0
280 -118 -43 -180 -171 -47 0
276 277 278 279 280 0
-281 188 0
-281 13 0
-281 -159 0
-281 103 0
-281 147 0
281 -188 -13 159 -103 -147 0
-282 161 0
-282 27 0
-282 180 0
-282 9 0
-282 76 0
282 -161 -27 -180 -9 -76 0
-283 146 0
-283 -35 0
-283 -64 0
-283 113 0
-283 -95 0
283 -146 35 64 -113 95 0
-284 156 0
-284 149 0
-284 117 0
-284 -152 0
-284 -65 0
284 -156 -149 -117 152 65 0
-285 -12 0
-285 -162 0
-285 33 0
-285 171 0
-285 -36 0
285 12 162 -33 -171 36 0
281 282 283 284 285 0
-286 -80 0
-286 -116 0
-286 -143 0
-286 -82 0
-286 -106 0
286 80 116 143 82 106 0
-287 135 0
-287 -12 0
-287 118 0
-287 -24 0
-287 180 0
287 -135 12 -118 24 -180 0
-288 164 0
-288 -27 0
-288 -76 0
-288 46 0
-288 58 0
288 -164 27 76 -46 -58 0
-289 -41 0
-289 -75 0
-289 -99 0
-289 -92 0
-289 -168 0
289 41 75 99 92 168 0
-290 -127 0
-290 111 0
-290 -105 0
-290 -190 0
-290 1 0
290 127 -111 105 190 -1 0
286 287 288 289 290 0
-291 -181 0
-291 -129 0
-291 36 0
-291 -168 0
-291 165 0
291 181 129 -36 168 -165 0
-292 166 0
-292 -128 0
-292 -151 0
-292 61 0
-292 -183 0
292 -166 128 151 -61 183 0
-293 162 0
-293 -51 0
-293 143 0
-293 -81 0
-293 93 0
293 -162 51 -143 81 -93 0
-294 -93 0
-294 78 0
-294 190 0
-294 -134 0
-294 -137 0
294 93 -78 -190 134 137 0
-295 28 0
-295 -117 0
-295 -76 0
-295 167 0
-295 -3 0
295 -28 117 76 -167 3 0
291 292 293 294 295 0
-296 102 0
-296 68 0
-296 8 0
-296 -44 0
-296 -5 0
296 -102 -68 -8 44 5 0
-297 -159 0
-297 170 0
-297 100 0
-297 -103 0
-297 -182 0
297 159 -170 -100 103 182 0
-298 17 0
-298 -84 0
-298 -49 0
-298 65 0
-298 13 0
298 -17 84 49 -65 -13 0
-299 157 0
-299 70 0
-299 -102 0
-299 -166 0
-299 10 0
299 -157 -70 102 166 -10 0
-300 -152 0
-300 168 0
-300 92 0
-300 -102 0
-300 -150 0
300 152 -168 -92 102 150 0
296 297 298 299 300 0
-301 40 0
-301 -140 0
-301 188 0
-301 91 0
-301 -102 0
301 -40 140 -188 -91 102 0
-302 121 0
-302 90 0
-302 109 0
-302 -15 0
-302 173 0
302 -121 -90 -109 15 -173 0
-303 -90 0
-303 -14 0
-303 185 0
-303 -147 0
-303 -123 0
303 90 14 -185 147 123 0
-304 81 0
-304 156 0
-304 -122 0
-304 -55 0
-304 110 0
304 -81 -156 122 55 -110 0
-305 98 0
-305 85 0
-305 -136 0
-305 -128 0
-305 30 0
305 -98 -85 136 128 -30 0
301 302 303 304 305 0
-306 117 0
-306 -176 0
-306 35 0
-306 -181 0
-306 -99 0
306 -117 176 -35 181 99 0
-307 177 0
-307 131 0
-307 -77 0
-307 -105 0
-307 161 0
307 -177 -131 77 105 -161 0
-308 -169 0
-308 171 0
-308 55 0
-308 179 0
-308 32 0
308 169 -171 -55 -179 -32 0
-309 -101 0
-309 182 0
-309 68 0
-309 28 0
-309 50 0
309 101 -182 -68 -28 -50 0
-310 -23 0
-310 -16 0
-310 -34 0
-310 124 0
-310 -113 0
310 23 16 34 -124 113 0
306 307 308 309 310 0
-311 77 0
-311 -130 0
-311 -61 0
-311 -157 0
-311 32 0
311 -77 130 61 157 -32 0
-312 54 0
-312 -163 0
-312 89 0
-312 -76 0
-312 -33 0
312 -54 163 -89 76 33 0
-313 -79 0
-313 -63 0
-313 -183 0
-313 166 0
-313 99 0
313 79 63 183 -166 -99 0
-314 29 0
-314 58 0
-314 -3 0
-314 19 0
-314 -14 0
314 -29 -58 3 -19 14 0
-315 -128 0
-315 -165 0
-315 74 0
-315 57 0
-315 125 0
315 128 165 -74 -57 -125 0
311 312 313 314 315 0
-316 -181 0
-316 185 0
-316 -85 0
-316 -46 0
-316 32 0
316 181 -185 85 46 -32 0
-317 115 0
-317 -24 0
-317 106 0
-317 -151 0
-317 136 0
317 -115 24 -106 151 -136 0
-318 103 0
-318 71 0
-318 -141 0
-318 -60 0
-318 125 0
318 -103 -71 141 60 -125 0
-319 -91 0
-319 38 0
-319 -119 0
-319 39 0
-319 171 0
319 91 -38 119 -39 -171 0
-320 -71 0
-320 69 0
-320 -30 0
-320 66 0
-320 138 0
320 71 -69 30 -66 -138 0
316 317 318 319 320 0
-321 150 0
-321 117 0
-321 -102 0
-321 -189 0
-321 149 0
321 -150 -117 102 189 -149 0
-322 -15 0
-322 7 0
-322 72 0
-322 189 0
-322 174 0
322 15 -7 -72 -189 -174 0
-323 -54 0
-323 -29 0
-323 34 0
-323 -36 0
-323 48 0
323 54 29 -34 36 -48 0
-324 105 0
-324 -73 0
-324 -40 0
-324 -44 0
-324 -175 0
324 -105 73 40 44 175 0
-325 -152 0
-325 142 0
-325 119 0
-325 -24 0
-325 172 0
325 152 -142 -119 24 -172 0
321 322 323 324 325 0
-326 89 0
-326 -30 0
-326 179 0
-326 -190 0
-326 -112 0
326 -89 30 -179 190 112 0
-327 -55 0
-327 26 0
-327 163 0
-327 116 0
-327 150 0
327 55 -26 -163 -116 -150 0
-328 -64 0
-328 155 0
-328 154 0
-328 -103 0
-328 91 0
328 64 -155 -154 103 -91 0
-329 -41 0
-329 94 0
-329 -151 0
-329 -125 0
-329 169 0
329 41 -94 151 125 -169 0
-330 -172 0
-330 -6 0
-330 -154 0
-330 -43 0
-330 71 0
330 172 6 154 43 -71 0
326 327 328 329 330 0
-331 -183 0
-331 31 0
-331 -39 0
-331 22 0
-331 -113 0
331 183 -31 39 -22 113 0
-332 -155 0
-332 48 0
-332 95 0
-332 87 0
-332 -101 0
332 155 -48 -95 -87 101 0
-333 -6 0
-333 -117 0
-333 72 0
-333 92 0
-333 91 0
333 6 117 -72 -92 -91 0
-334 -127 0
-334 -59 0
-334 -169 0
-334 -34 0
-334 89 0
334 127 59 169 34 -89 0
-335 -97 0
-335 -61 0
-335 181 0
-335 155 0
-335 78 0
335 97 61 -181 -155 -78 0
331 332 333 334 335 0
-336 -49 0
-336 84 0
-336 -4 0
-336 -181 0
-336 96 0
336 49 -84 4 181 -96 0
-337 158 0
-337 62 0
-337 -90 0
-337 -189 0
-337 -80 0
337 -158 -62 90 189 80 0
-338 150 0
-338 30 0
-338 -31 0
-338 -188 0
-338 -141 0
338 -150 -30 31 188 141 0
-339 -46 0
-339 -43 0
-339 165 0
-339 145 0
-339 151 0
339 46 43 -165 -145 -151 0
-340 -118 0
-340 -113 0
-340 -162 0
-340 81 0
-340 149 0
340 118 113 162 -81 -149 0
336 337 338 339 340 0
-341 106 0
-341 140 0
-341 -166 0
-341 -143 0
-341 -30 0
341 -106 -140 166 143 30 0
-342 -79 0
-342 52 0
-342 85 0
-342 179 0
-342 92 0
342 79 -52 -85 -179 -92 0
-343 -20 0
-343 58 0
-343 -186 0
-343 91 0
-343 164 0
343 20 -58 186 -91 -164 0
-344 -124 0
-344 60 0
-344 -110 0
-344 174 0
-344 162 0
344 124 -60 110 -174 -162 0
-345 71 0
-345 167 0
-345 -4 0
-345 5 0
-345 -174 0
345 -71 -167 4 -5 174 0
341 342 343 344 345 0
-346 188 0
-346 -142 0
-346 -11 0
-346 -1 0
-346 -185 0
346 -188 142 11 1 185 0
-347 -113 0
-347 111 0
-347 -13 0
-347 43 0
-347 121 0
347 113 -111 13 -43 -121 0
-348 -114 0
-348 126 0
-348 101 0
-348 2 0
-348 -153 0
348 114 -126 -101 -2 153 0
-349 -92 0
-349 -125 0
-349 129 0
-349 140 0
-349 -78 0
349 92 125 -129 -140 78 0
-350 -114 0
-350 -50 0
-350 24 0
-350 135 0
-350 -71 0
350 114 50 -24 -135 71 0
346 347 348 349 350 0
-351 -31 0
-351 -97 0
-351 -42 0
-351 110 0
-351 189 0
351 31 97 42 -110 -189 0
-352 -65 0
-352 59 0
-352 107 0
-352 -146 0
-352 46 0
352 65 -59 -107 146 -46 0
-353 -126 0
-353 -128 0
-353 113 0
-353 157 0
-353 -140 0
353 126 128 -113 -157 140 0
-354 -178 0
-354 -19 0
-354 132 0
-354 -137 0
-354 -78 0
354 178 19 -132 137 78 0
-355 -71 0
-355 -83 0
-355 -36 0
-355 13 0
-355 180 0
355 71 83 36 -13 -180 0
351 352 353 354 355 0
-356 -5 0
-356 177 0
-356 -88 0
-356 -153 0
-356 176 0
356 5 -177 88 153 -176 0
-357 8 0
-357 -103 0
-357 -177 0
-357 117 0
-357 129 0
357 -8 103 177 -117 -129 0
-358 -189 0
-358 -123 0
-358 8 0
-358 -67 0
-358 50 0
358 189 123 -8 67 -50 0
-359 -77 0
-359 82 0
-359 -23 0
-359 -27 0
-359 7 0
359 77 -82 23 27 -7 0
-360 -180 0
-360 -146 0
-360 137 0
-360 81 0
-360 141 0
360 180 146 -137 -81 -141 0
356 357 358 359 360 0
-361 -125 0
-361 -189 0
-361 133 0
-361 29 0
-361 116 0
361 125 189 -133 -29 -116 0
-362 66 0
-362 -138 0
-362 60 0
-362 98 0
-362 28 0
362 -66 138 -60 -98 -28 0
-363 -164 0
-363 -31 0
-363 -29 0
-363 27 0
-363 70 0
363 164 31 29 -27 -70 0
-364 -114 0
-364 -183 0
-364 75 0
-364 121 0
-364 108 0
364 114 183 -75 -121 -108 0
-365 106 0
-365 10 0
-365 75 0
-365 -15 0
-365 92 0
365 -106 -10 -75 15 -92 0
361 362 363 364 365 0
-366 -36 0
-366 -56 0
-366 -44 0
-366 -25 0
-366 72 0
366 36 56 44 25 -72 0
-367 -109 0
-367 -170 0
-367 16 0
-367 -85 0
-367 -22 0
367 109 170 -16 85 22 0
-368 -159 0
-368 119 0
-368 -73 0
-368 62 0
-368 65 0
368 159 -119 73 -62 -65 0
-369 -162 0
-369 116 0
-369 -97 0
-369 131 0
-369 -144 0
369 162 -116 97 -131 144 0
-370 -2 0
-370 16 0
-370 -69 0
-370 -84 0
-370 -104 0
370 2 -16 69 84 104 0
366 367 368 369 370 0
-371 -77 0
-371 -99 0
-371 15 0
-371 38 0
-371 -88 0
371 77 99 -15 -38 88 0
-372 54 0
-372 -83 0
-372 -109 0
-372 -13 0
-372 115 0
372 -54 83 109 13 -115 0
-373 -147 0
-373 140 0
-373 -159 0
-373 185 0
-373 -138 0
373 147 -140 159 -185 138 0
-374 -15 0
-374 -142 0
-374 -172 0
-374 -151 0
-374 -125 0
374 15 142 172 151 125 0
-375 140 0
-375 54 0
-375 -19 0
-375 188 0
-375 93 0
375 -140 -54 19 -188 -93 0
371 372 373 374 375 0
-376 -164 0
-376 -7 0
-376 166 0
-376 16 0
-376 180 0
376 164 7 -166 -16 -180 0
-377 7 0
-377 101 0
-377 -177 0
-377 113 0
-377 -190 0
377 -7 -101 177 -113 190 0
-378 70 0
-378 100 0
-378 121 0
-378 -80 0
-378 -157 0
378 -70 -100 -121 80 157 0
-379 -134 0
-379 -96 0
-379 -190 0
-379 189 0
-379 -44 0
379 134 96 190 -189 44 0
-380 12 0
-380 -97 0
-380 -123 0
-380 -135 0
-380 140 0
380 -12 97 123 135 -140 0
376 377 378 379 380 0
-381 148 0
-381 -118 0
-381 -116 0
-381 5 0
-381 -44 0
381 -148 118 116 -5 44 0
-382 13 0
-382 -88 0
-382 -161 0
-382 118 0
-382 153 0
382 -13 88 161 -118 -153 0
-383 69 0
-383 155 0
-383 62 0
-383 -96 0
-383 -99 0
383 -69 -155 -62 96 99 0
-384 -141 0
-384 108 0
-384 154 0
-384 -98 0
-384 -38 0
384 141 -108 -154 98 38 0
-385 9 0
-385 124 0
-385 -106 0
-385 13 0
-385 -76 0
385 -9 -124 106 -13 76 0
381 382 383 384 385 0
-386 26 0
-386 -70 0
-386 67 0
-386 -152 0
-386 -30 0
386 -26 70 -67 152 30 0
-387 164 0
-387 -175 0
-387 168 0
-387 90 0
-387 -29 0
387 -164 175 -168 -90 29 0
-388 -156 0
-388 109 0
-388 -82 0
-388 92 0
-388 -159 0
388 156 -109 82 -92 159 0
-389 169 0
-389 -7 0
-389 126 0
-389 -154 0
-389 102 0
389 -169 7 -126 154 -102 0
-390 1 0
-390 17 0
-390 85 0
-390 60 0
-390 -189 0
390 -1 -17 -85 -60 189 0
386 387 388 389 390 0
-391 -62 0
-391 -63 0
-391 60 0
-391 46 0
-391 11 0
391 62 63 -60 -46 -11 0
-392 139 0
-392 -190 0
-392 104 0
-392 3 0
-392 -186 0
392 -139 190 -104 -3 186 0
-393 118 0
-393 135 0
-393 51 0
-393 -14 0
-393 124 0
393 -118 -135 -51 14 -124 0
-394 84 0
-394 38 0
-394 -16 0
-394 -179 0
-394 -27 0
394 -84 -38 16 179 27 0
-395 -111 0
-395 71 0
-395 130 0
-395 -36 0
-395 -94 0
395 111 -71 -130 36 94 0
391 392 393 394 395 0
-396 141 0
-396 59 0
-396 139 0
-396 -121 0
-396 12 0
396 -141 -59 -139 121 -12 0
-397 -19 0
-397 -89 0
-397 -130 0
-397 188 0
-397 58 0
397 19 89 130 -188 -58 0
-398 -174 0
-398 138 0
-398 -55 0
-398 -51 0
-398 139 0
398 174 -138 55 51 -139 0
-399 -125 0
-399 -25 0
-399 44 0
-399 -5 0
-399 -190 0
399 125 25 -44 5 190 0
-400 136 0
-400 -70 0
-400 -20 0
-400 -58 0
-400 -150 0
400 -136 70 20 58 150 0
396 397 398 399 400 0
-401 136 0
-401 -39 0
-401 -163 0
-401 -73 0
-401 -40 0
401 -136 39 163 73 40 0
-402 107 0
-402 -121 0
-402 -16 0
-402 -32 0
-402 115 0
402 -107 121 16 32 -115 0
-403 -74 0
-403 -110 0
-403 -106 0
-403 14 0
-403 111 0
403 74 110 106 -14 -111 0
-404 188 0
-404 -161 0
-404 -154 0
-404 72 0
-404 87 0
404 -188 161 154 -72 -87 0
-405 -155 0
-405 88 0
-405 157 0
-405 188 0
-405 60 0
405 155 -88 -157 -188 -60 0
401 402 403 404 405 0
-406 77 0
-406 27 0
-406 -188 0
-406 13 0
-406 184 0
406 -77 -27 188 -13 -184 0
-407 -190 0
-407 4 0
-407 -8 0
-407 -61 0
-407 -90 0
407 190 -4 8 61 90 0
-408 54 0
-408 -124 0
-408 -100 0
-408 -116 0
-408 105 0
408 -54 124 100 116 -105 0
-409 -63 0
-409 -52 0
-409 99 0
-409 -183 0
-409 125 0
409 63 52 -99 183 -125 0
-410 -165 0
-410 -179 0
-410 108 0
-410 -27 0
-410 139 0
410 165 179 -108 27 -139 0
406 407 408 409 410 0
-411 127 0
-411 164 0
-411 -107 0
-411 -71 0
-411 -172 0
411 -127 -164 107 71 172 0
-412 -178 0
-412 72 0
-412 165 0
-412 -13 0
-412 177 0
412 178 -72 -165 13 -177 0
-413 119 0
-413 123 0
-413 -130 0
-413 -131 0
-413 56 0
413 -119 -123 130 131 -56 0
-414 103 0
-414 -130 0
-414 185 0
-414 184 0
-414 -142 0
414 -103 130 -185 -184 142 0
-415 -10 0
-415 27 0
-415 -128 0
-415 -106 0
-415 97 0
415 10 -27 128 106 -97 0
411 412 413 414 415 0
-416 5 0
-416 -175 0
-416 125 0
-416 113 0
-416 -9 0
416 -5 175 -125 -113 9 0
-417 -17 0
-417 -115 0
-417 22 0
-417 -18 0
-417 -126 0
417 17 115 -22 18 126 0
-418 104 0
-418 -2 0
-418 -65 0
-418 -162 0
-418 -1 0
418 -104 2 65 162 1 0
-419 -157 0
-419 -141 0
-419 -147 0
-419 31 0
-419 7 0
419 157 141 147 -31 -7 0
-420 157 0
-420 -36 0
-420 171 0
-420 174 0
-420 26 0
420 -157 36 -171 -174 -26 0
416 417 418 419 420 0
-421 97 0
-421 -183 0
-421 29 0
-421 -24 0
-421 186 0
421 -97 183 -29 24 -186 0
-422 56 0
-422 -97 0
-422 183 0
-422 -178 0
-422 -74 0
422 -56 97 -183 178 74 0
-423 157 0
-423 179 0
-423 23 0
-423 130 0
-423 -188 0
423 -157 -179 -23 -130 188 0
-424 -2 0
-424 85 0
-424 -41 0
-424 -10 0
-424 -102 0
424 2 -85 41 10 102 0
-425 -132 0
-425 -61 0
-425 128 0
-425 46 0
-425 71 0
425 132 61 -128 -46 -71 0
421 422 423 424 425 0
-426 112 0
-426 67 0
-426 35 0
-426 5 0
-426 142 0
426 -112 -67 -35 -5 -142 0
-427 174 0
-427 154 0
-427 24 0
-427 71 0
-427 128 0
427 -174 -154 -24 -71 -128 0
-428 -174 0
-428 24 0
-428 57 0
-428 -31 0
-428 -169 0
428 174 -24 -57 31 169 0
-429 136 0
-429 143 0
-429 -7 0
-429 175 0
-429 86 0
429 -136 -143 7 -175 -86 0
-430 163 0
-430 -126 0
-430 3 0
-430 72 0
-430 -188 0
430 -163 126 -3 -72 188 0
426 427 428 429 430 0
